; benchmark generated from python API
(set-info :status unknown)
(declare-datatypes ((RealState 0)) (((RMk1 (rval1 Real)) (RMk2 (rval2 Real)))))
 (assert
 (forall ((|v11:0| Real) )(exists ((|v10:1_st| RealState) (val!1734 Real) )(forall ((|v9:2| Real) )(exists ((|v8:3_st| RealState) (val!1735 Real) )(forall ((|v7:4| Real) )(exists ((|v6:5_st| RealState) (val!1736 Real) )(forall ((|v5:6| Real) )(exists ((|v4:7_st| RealState) (val!1737 Real) )(forall ((|v3:8| Real) )(exists ((|v2:9_st| RealState) (val!1738 Real) )(forall ((|v1:10| Real) )(exists ((|v0:11_st| RealState) (val!1739 Real) )(let ((?x1304 (rval2 |v6:5_st|)))
 (let ((?x1532 (* 19.0 ?x1304)))
 (let ((?x934 (+ (+ (+ (* 7.0 (rval2 |v0:11_st|)) (* 7.0 |v11:0|)) ?x1532) (* (- 19.0) |v3:8|))))
 (let ((?x2983 (- 18.0)))
 (let ((?x1033 (* ?x2983 |v1:10|)))
 (let ((?x1308 (+ (+ (+ (* 18.0 (rval2 |v2:9_st|)) (* 7.0 (rval2 |v4:7_st|))) ?x1033) (* (- 17.0) (rval2 |v10:1_st|)))))
 (let ((?x1077 (+ (+ (+ (* 3.0 |v5:6|) (* (- 20.0) |v9:2|)) (* 15.0 (rval2 |v8:3_st|))) (* (- 16.0) (rval2 |v8:3_st|)))))
 (let ((?x174 (- 10.0)))
 (let ((?x1194 (rval2 |v10:1_st|)))
 (let ((?x2527 (* 0.0 ?x1194)))
 (let ((?x356 (+ (+ (* 17.0 (rval2 |v0:11_st|)) (* (- 1.0) |v9:2|)) (* (- 5.0) ?x1194))))
 (let (($x2740 (and (and (<= (+ ?x356 ?x2527) ?x174) (<= ?x1077 14.0)) (or (<= ?x1308 18.0) (<= ?x934 14.0)))))
 (let ((?x1160 (- 2.0)))
 (let ((?x922 (- 4.0)))
 (let ((?x561 (* ?x922 |v3:8|)))
 (let ((?x2097 (+ (+ (+ (* (- 6.0) (rval2 |v0:11_st|)) (* (- 5.0) |v11:0|)) ?x561) (* 7.0 |v5:6|))))
 (let ((?x833 (* 20.0 |v11:0|)))
 (let ((?x2693 (+ (+ (+ (* 11.0 |v1:10|) (* 16.0 |v7:4|)) (* (- 11.0) (rval2 |v4:7_st|))) ?x833)))
 (let ((?x759 (rval2 |v0:11_st|)))
 (let ((?x1932 (* 17.0 ?x759)))
 (let ((?x640 (+ (+ (+ (* 0.0 (rval2 |v8:3_st|)) (* 18.0 ?x1304)) (* (- 20.0) |v1:10|)) ?x1932)))
 (let ((?x533 (* 2.0 |v9:2|)))
 (let ((?x1259 (+ (+ (+ (* 2.0 |v7:4|) (* 19.0 ?x759)) (* (- 3.0) (rval2 |v8:3_st|))) ?x533)))
 (let (($x1795 (or (or (<= ?x1259 2.0) (<= ?x640 3.0)) (and (<= ?x2693 17.0) (<= ?x2097 ?x1160)))))
 (let ((?x1292 (rval2 |v8:3_st|)))
 (let ((?x1738 (- 17.0)))
 (let ((?x1408 (* ?x1738 ?x1292)))
 (let ((?x1744 (+ (+ (+ (* 12.0 (rval2 |v4:7_st|)) (* 14.0 ?x1304)) (* 2.0 ?x1194)) ?x1408)))
 (let ((?x857 (rval2 |v4:7_st|)))
 (let ((?x2075 (* 7.0 ?x857)))
 (let ((?x1201 (+ (+ (+ (* (- 14.0) ?x857) (* 12.0 ?x759)) (* 17.0 |v11:0|)) ?x2075)))
 (let ((?x740 (- 6.0)))
 (let ((?x532 (* 18.0 |v3:8|)))
 (let ((?x1868 (+ (+ (+ (* 14.0 |v7:4|) (* (- 11.0) |v5:6|)) (* 9.0 ?x1292)) ?x532)))
 (let ((?x2611 (* 4.0 ?x759)))
 (let ((?x260 (+ (+ (+ (* 3.0 |v7:4|) (* (- 13.0) ?x1194)) (* 15.0 (rval2 |v2:9_st|))) ?x2611)))
 (let (($x1263 (or (or (<= ?x260 13.0) (<= ?x1868 ?x740)) (or (<= ?x1201 16.0) (<= ?x1744 16.0)))))
 (let ((?x1382 (+ (+ (+ (* 12.0 ?x1304) (* ?x922 ?x857)) (* 15.0 |v7:4|)) (* (- 5.0) ?x857))))
 (let ((?x1038 (* 11.0 |v11:0|)))
 (let ((?x2319 (+ (+ (+ (* (- 3.0) |v9:2|) (* 15.0 |v3:8|)) (* 7.0 |v9:2|)) ?x1038)))
 (let ((?x2480 (- 5.0)))
 (let ((?x748 (* 16.0 |v3:8|)))
 (let ((?x505 (+ (+ (+ (* (- 14.0) ?x759) (* 3.0 |v5:6|)) (* 7.0 ?x1194)) ?x748)))
 (let (($x766 (<= (+ (+ (+ (* 14.0 |v5:6|) (* ?x174 |v7:4|)) ?x1408) (* ?x1738 ?x759)) 14.0)))
 (let (($x1407 (or (and $x766 (<= ?x505 ?x2480)) (or (<= ?x2319 13.0) (<= ?x1382 16.0)))))
 (let (($x1191 (<= (+ (+ (+ ?x1932 ?x2075) (* (- 12.0) |v9:2|)) (* ?x922 |v1:10|)) 17.0)))
 (let ((?x2590 (- 11.0)))
 (let ((?x903 (* ?x1738 |v3:8|)))
 (let ((?x2170 (+ (+ (+ (* (- 15.0) |v11:0|) (* 16.0 |v7:4|)) (* 12.0 (rval2 |v2:9_st|))) ?x903)))
 (let ((?x1986 (+ (+ (+ (* 5.0 ?x1304) (* 11.0 (rval2 |v2:9_st|))) (* 16.0 |v1:10|)) (* (- 3.0) ?x1304))))
 (let ((?x1084 (+ (+ (+ (* (- 7.0) ?x1292) (* (- 7.0) |v9:2|)) (* 4.0 |v11:0|)) (* 6.0 |v11:0|))))
 (let (($x2745 (or (and (<= ?x1084 2.0) (<= ?x1986 ?x740)) (and (<= ?x2170 ?x2590) $x1191))))
 (let ((?x923 (+ (+ (+ (* (- 9.0) ?x857) (* 13.0 ?x1304)) (* 9.0 |v9:2|)) ?x833)))
 (let ((?x1448 (- 8.0)))
 (let (($x2771 (<= (+ (+ (+ ?x561 (* ?x2983 ?x1194)) (* ?x1448 ?x1304)) (* 20.0 |v7:4|)) ?x1448)))
 (let ((?x388 (- 12.0)))
 (let ((?x1141 (* 4.0 |v11:0|)))
 (let ((?x88 (+ (+ (+ (* 3.0 (rval2 |v2:9_st|)) (* 20.0 |v3:8|)) (* 8.0 |v3:8|)) ?x1141)))
 (let ((?x2071 (+ (+ (* (- 3.0) (rval2 |v2:9_st|)) (* ?x1160 ?x759)) (* (- 1.0) |v7:4|))))
 (let (($x1767 (and (or (<= (+ ?x2071 (* 16.0 ?x759)) ?x1448) (<= ?x88 ?x388)) (or $x2771 (<= ?x923 16.0)))))
 (let ((?x2642 (- 15.0)))
 (let ((?x1997 (+ (+ (+ (* 16.0 |v11:0|) (* 6.0 ?x759)) (* 15.0 |v5:6|)) (* (- 19.0) ?x1194))))
 (let ((?x2622 (+ (+ (+ (* 13.0 ?x1194) (* (- 14.0) |v9:2|)) (* ?x740 ?x759)) (* 8.0 |v9:2|))))
 (let (($x163 (<= (+ (+ (+ |v1:10| (* ?x2480 |v7:4|)) (* 3.0 ?x759)) (* (- 13.0) ?x1304)) ?x1448)))
 (let ((?x2683 (- 16.0)))
 (let ((?x2210 (* 5.0 ?x1292)))
 (let (($x954 (<= (+ (+ (+ (* ?x740 ?x759) (* ?x2983 |v11:0|)) (* ?x1448 ?x1194)) ?x2210) ?x2683)))
 (let ((?x2504 (- 19.0)))
 (let ((?x1058 (* 15.0 |v3:8|)))
 (let (($x907 (<= (+ (+ (+ (* (- 20.0) |v5:6|) |v5:6|) (* 18.0 |v9:2|)) ?x1058) ?x2504)))
 (let ((?x1699 (+ (+ (+ (* (- 3.0) |v11:0|) (* 14.0 |v1:10|)) (* (- 14.0) |v1:10|)) (* ?x174 ?x759))))
 (let ((?x1579 (- 7.0)))
 (let ((?x2342 (* ?x1579 ?x1304)))
 (let (($x1740 (<= (+ (+ (+ (* ?x1738 |v7:4|) (* (- 9.0) ?x759)) (* 18.0 |v5:6|)) ?x2342) 0.0)))
 (let ((?x1229 (- 3.0)))
 (let ((?x1419 (* ?x1229 |v11:0|)))
 (let (($x2692 (<= (+ (+ (+ ?x833 (* ?x2504 (rval2 |v2:9_st|))) (* ?x1448 ?x759)) ?x1419) ?x388)))
 (let (($x1723 (or (and (and $x2692 $x1740) (and (<= ?x1699 5.0) $x907)) (or (and $x954 $x163) (and (<= ?x2622 ?x922) (<= ?x1997 ?x2642))))))
 (let (($x2575 (<= (+ (+ (+ (* 8.0 ?x1304) (* 6.0 |v7:4|)) ?x533) (* ?x2590 ?x1194)) ?x388)))
 (let (($x1716 (or $x2575 (<= (+ (+ (+ (* ?x388 |v3:8|) (* 3.0 ?x759)) ?x1033) ?x2527) 13.0))))
 (let ((?x1071 (* ?x388 |v3:8|)))
 (let (($x2878 (<= (+ (+ (+ |v5:6| (* ?x174 |v11:0|)) (* 2.0 (rval2 |v2:9_st|))) ?x1071) 17.0)))
 (let ((?x1613 (+ (+ (+ (* ?x1160 |v11:0|) (* ?x2683 (rval2 |v2:9_st|))) (* ?x1448 |v11:0|)) (* 16.0 |v5:6|))))
 (let (($x1929 (<= (+ (+ (+ (* 7.0 ?x1304) (* (- 13.0) ?x1194)) ?x2210) ?x2611) 17.0)))
 (let ((?x2851 (* ?x1448 ?x759)))
 (let (($x976 (<= (+ (+ (+ (* ?x1448 |v7:4|) (* 16.0 |v9:2|)) (* ?x1738 |v1:10|)) ?x2851) ?x2504)))
 (let ((?x1290 (+ (+ (+ (* (- 9.0) ?x1304) (* 18.0 ?x857)) (* ?x740 |v1:10|)) (* 9.0 |v3:8|))))
 (let ((?x2331 (+ (+ (+ (* ?x1579 ?x759) (* 8.0 |v11:0|)) (* 16.0 |v7:4|)) (* ?x2642 ?x1194))))
 (let (($x1897 (or (or (or (<= ?x2331 ?x2642) (<= ?x1290 ?x2683)) (or $x976 $x1929)) (and (or (<= ?x1613 15.0) $x2878) $x1716))))
 (let ((?x2799 (+ (+ (+ (* 19.0 |v1:10|) (* 6.0 (rval2 |v2:9_st|))) (* 20.0 |v1:10|)) (* ?x1579 ?x1194))))
 (let ((?x296 (- 13.0)))
 (let ((?x406 (+ (+ (+ (* ?x388 (rval2 |v2:9_st|)) (* ?x2590 |v5:6|)) (* 12.0 ?x759)) (* ?x296 |v7:4|))))
 (let ((?x1217 (* 15.0 ?x1194)))
 (let (($x1861 (<= (+ (+ (+ (* 4.0 ?x1304) (* ?x2504 |v7:4|)) (* ?x1160 ?x1304)) ?x1217) ?x2642)))
 (let ((?x123 (* ?x2683 |v7:4|)))
 (let (($x476 (<= (+ (+ (+ (* ?x1229 |v9:2|) (* (- 14.0) |v11:0|)) (* ?x1229 |v3:8|)) ?x123) 11.0)))
 (let ((?x1261 (rval2 |v2:9_st|)))
 (let ((?x1703 (* 12.0 ?x1261)))
 (let (($x1589 (and (or (<= (+ (+ (+ ?x1261 (* 3.0 |v9:2|)) ?x833) ?x1703) ?x2642) $x476) (and $x1861 (<= ?x406 ?x296)))))
 (let ((?x3012 (+ (+ (+ (* 17.0 ?x1261) (* ?x296 ?x759)) (* 14.0 ?x1194)) (* 11.0 ?x1292))))
 (let ((?x1605 (* ?x2983 |v5:6|)))
 (let (($x380 (<= (+ (+ (+ (* 16.0 ?x1304) (* 16.0 ?x1304)) (* 0.0 |v3:8|)) ?x1605) ?x2590)))
 (let ((?x1971 (+ (+ (+ (* ?x922 ?x759) (* ?x2504 ?x1304)) (* 18.0 |v1:10|)) (* ?x2983 ?x1292))))
 (let ((?x3019 (+ (+ (+ (* 7.0 |v1:10|) |v3:8|) (* 17.0 |v9:2|)) (* (- 14.0) ?x1292))))
 (let ((?x1211 (+ (+ (+ (* ?x740 |v3:8|) (* 18.0 |v7:4|)) (* ?x922 ?x857)) (* ?x1738 ?x1261))))
 (let (($x42 (<= (+ (+ (+ (* 13.0 |v7:4|) ?x2342) (* 3.0 ?x1292)) (* 15.0 ?x857)) 8.0)))
 (let ((?x1331 (* 18.0 |v11:0|)))
 (let (($x314 (<= (+ (+ (+ (* 15.0 ?x759) (* 8.0 |v3:8|)) (* 5.0 ?x1194)) ?x1331) 3.0)))
 (let (($x939 (or (or $x314 (and $x42 (<= ?x1211 ?x388))) (or (or (<= ?x3019 16.0) (<= ?x1971 ?x740)) (and $x380 (<= ?x3012 ?x740))))))
 (let ((?x1429 (+ (+ (+ (* 7.0 ?x759) (* 14.0 ?x759)) (* (- 20.0) |v3:8|)) (* ?x2683 |v11:0|))))
 (let (($x1130 (<= (+ (+ (+ ?x123 (* 9.0 ?x759)) (* ?x2642 |v1:10|)) (* 0.0 |v1:10|)) 13.0)))
 (let (($x474 (<= (+ (+ (+ (* 11.0 ?x857) (* ?x1738 |v9:2|)) ?x1331) (* ?x1448 ?x1261)) 9.0)))
 (let ((?x592 (* ?x2683 |v1:10|)))
 (let (($x465 (<= (+ (+ (+ (* ?x1448 ?x1194) (* 11.0 |v7:4|)) (* 4.0 ?x1304)) ?x592) 11.0)))
 (let ((?x288 (+ (+ (+ (* 14.0 ?x1261) (* 7.0 |v1:10|)) (* 5.0 |v11:0|)) (* (- 14.0) ?x1304))))
 (let ((?x186 (+ (+ (+ (* 12.0 |v9:2|) (* 6.0 |v1:10|)) (* 5.0 ?x759)) (* ?x2683 ?x759))))
 (let ((?x503 (- 20.0)))
 (let ((?x1700 (* 16.0 ?x1261)))
 (let (($x495 (<= (+ (+ (+ (* 3.0 ?x857) (* 4.0 ?x857)) (* 14.0 |v5:6|)) ?x1700) ?x503)))
 (let ((?x538 (* ?x1738 |v5:6|)))
 (let (($x2122 (<= (+ (+ (+ (* 12.0 |v11:0|) (* ?x1160 |v1:10|)) (* 9.0 ?x1292)) ?x538) 13.0)))
 (let (($x1315 (or (and (or $x2122 $x495) (or (<= ?x186 ?x2504) (<= ?x288 1.0))) (or (or $x465 $x474) (or $x1130 (<= ?x1429 12.0))))))
 (let (($x2499 (or (and (or $x1315 $x939) (or (and $x1589 (<= ?x2799 5.0)) $x1897)) (or (and $x1723 (or $x1767 $x2745)) (or (and $x1407 $x1263) (or $x1795 $x2740))))))
 (let (($x1423 (not (= |v0:11_st| (RMk1 val!1739)))))
 (let (($x937 (not (= |v2:9_st| (RMk1 val!1738)))))
 (let (($x1277 (not (= |v4:7_st| (RMk1 val!1737)))))
 (let (($x1151 (not (= |v6:5_st| (RMk1 val!1736)))))
 (let (($x1011 (not (= |v8:3_st| (RMk1 val!1735)))))
 (let (($x439 (not (= |v10:1_st| (RMk1 val!1734)))))
 (and $x439 $x1011 $x1151 $x1277 $x937 $x1423 $x2499)))))))))))))))))))))))))))))))))))))))))))))))))))))))))))))))))))))))))))))))))))))))))))))))))))))))))))))))))))))))))))))))))))
 )
 )
 )
 )
 )
 )
 )
 )
 )
 )
 )
 )
(check-sat)
